This is Ipopt version 3.10.1, running with linear solver mumps.

Number of nonzeros in equality constraint Jacobian...:      236
Number of nonzeros in inequality constraint Jacobian.:        0
Number of nonzeros in Lagrangian Hessian.............:     5892

Total number of variables............................:      120
                     variables with only lower bounds:        0
                variables with lower and upper bounds:      120
                     variables with only upper bounds:        0
Total number of equality constraints.................:       59
Total number of inequality constraints...............:        0
        inequality constraints with only lower bounds:        0
   inequality constraints with lower and upper bounds:        0
        inequality constraints with only upper bounds:        0

iter    objective    inf_pr   inf_du lg(mu)  ||d||  lg(rg) alpha_du alpha_pr  ls
   0 -1.3846831e-03 1.00e-02 7.94e-04  -1.0 0.00e+00    -  0.00e+00 0.00e+00   0
   1 -1.7204583e-03 3.90e-10 2.45e-03  -1.7 2.34e-02    -  9.82e-01 1.00e+00h  1
   2 -1.9400069e-03 2.22e-16 1.69e-05  -2.5 3.31e-02    -  1.00e+00 1.00e+00f  1
   3 -2.3672935e-03 7.61e-12 6.84e-04  -3.8 2.92e-02    -  9.39e-01 1.00e+00f  1
   4 -5.6642816e-03 2.22e-16 2.05e-03  -5.7 9.69e-02  -2.0 6.42e-01 1.00e+00f  1
   5 -8.4165438e-03 9.67e-13 3.38e-03  -5.7 1.47e-01  -1.6 7.43e-01 2.88e-01f  1
   6 -1.2523415e-02 1.87e-12 5.08e-03  -5.7 5.47e-02  -1.1 9.97e-01 7.40e-01f  1
   7 -1.3919866e-02 1.71e-12 5.16e-03  -5.7 2.53e-02  -0.7 1.00e+00 4.10e-01f  1
   8 -1.6504462e-02 2.43e-12 2.85e-02  -5.7 2.73e-01  -1.2 1.00e+00 7.16e-02f  1
   9 -2.0948862e-02 2.60e-12 7.88e-03  -5.7 4.64e-02  -0.8 1.00e+00 5.96e-01f  1
iter    objective    inf_pr   inf_du lg(mu)  ||d||  lg(rg) alpha_du alpha_pr  ls
  10 -6.3247716e-03 1.49e-12 6.21e-02  -5.7 9.58e-01  -1.3 2.81e-02 4.29e-01h  1
  11 -6.3181440e-03 1.49e-12 6.20e-02  -5.7 1.42e+00  -1.7 2.90e-02 1.05e-04f 12
  12 -8.5502887e-03 7.50e-13 3.19e-02  -5.7 7.63e-02  -1.3 9.19e-01 4.95e-01f  1
  13 -9.1146831e-03 4.86e-13 2.10e-02  -5.7 3.83e-02  -0.9 1.00e+00 3.52e-01f  1
  14 -1.2521601e-02 2.18e-12 1.80e-02  -5.7 1.68e-01  -1.4 1.00e+00 2.45e-01F  1
  15 -1.2881117e-02 2.01e-12 1.71e-02  -5.7 5.17e-02  -0.9 1.00e+00 7.98e-02f  1
  16 -1.3866656e-02 2.40e-12 3.22e-02  -5.7 5.58e-01  -1.4 8.45e-01 2.29e-02f  2
  17 -2.0760458e-02 2.89e-15 8.97e-03  -5.7 6.77e-02  -1.0 1.00e+00 9.99e-01f  1
  18 -2.4019631e-02 8.88e-16 9.51e-03  -5.7 3.28e-02  -0.6 1.00e+00 8.03e-01f  1
  19 -2.5162845e-02 8.88e-16 2.36e-02  -5.7 2.22e-01  -1.0 1.00e+00 4.28e-02f  1
iter    objective    inf_pr   inf_du lg(mu)  ||d||  lg(rg) alpha_du alpha_pr  ls
  20 -3.0742945e-02 4.44e-16 1.25e-02  -5.7 4.83e-02  -0.6 1.00e+00 8.08e-01f  1
  21 -3.2300007e-02 4.44e-16 2.53e-02  -5.7 6.46e-01  -1.1 2.85e-01 1.51e-02f  1
  22 -3.3701153e-02 6.62e-13 1.47e-02  -5.7 5.77e-02  -0.7 1.00e+00 1.32e-01f  1
  23 -3.7351049e-02 6.35e-13 6.29e-02  -5.7 5.27e-01  -1.1 8.05e-01 3.98e-02f  1
  24 -4.4123337e-02 2.57e-13 1.29e-02  -5.7 6.96e-02  -0.7 1.00e+00 5.95e-01f  1
  25 -3.8646552e-02 2.01e-13 5.49e-02  -5.7 1.67e+00  -1.2 2.98e-02 2.19e-01h  1
  26 -3.8660279e-02 2.34e-13 5.47e-02  -5.7 2.87e-01  -0.8 6.23e-01 2.17e-03f  8
  27 -3.5112174e-02 2.30e-13 5.30e-02  -5.7 2.05e+00  -1.2 8.31e-03 1.44e-02h  1
  28 -3.5112835e-02 2.32e-13 1.03e-01  -5.7 8.30e-01  -0.8 3.22e-01 4.18e-05f 10
  29 -1.9911923e-02 2.09e-13 9.62e-02  -5.7 3.37e+00  -1.3 1.10e-02 1.02e-01h  1
iter    objective    inf_pr   inf_du lg(mu)  ||d||  lg(rg) alpha_du alpha_pr  ls
  30 -2.1124585e-02 1.81e-13 7.47e-02  -5.7 1.76e-01  -0.9 4.32e-01 1.35e-01f  1
  31 -2.1128949e-02 2.04e-13 7.46e-02  -5.7 2.65e-02  -0.4 5.73e-01 1.20e-03f  9
  32 -2.1135462e-02 2.14e-13 7.45e-02  -5.7 1.16e-01  -0.9 5.69e-01 4.37e-04f  9
  33 -2.3586714e-02 8.92e-14 3.34e-02  -5.7 3.22e-02  -0.5 5.23e-01 5.83e-01f  1
  34 -2.3712078e-02 1.90e-13 3.32e-02  -5.7 1.65e-01  -1.0 2.72e-01 5.68e-03f  6
  35 -2.3720160e-02 2.06e-13 3.32e-02  -5.7 4.01e-02  -0.5 1.00e+00 1.48e-03f 10
  36 -2.8125938e-02 1.77e-13 3.12e-02  -5.7 2.06e-01  -1.0 1.49e-01 1.43e-01f  1
  37 -3.5198662e-02 2.51e-14 1.56e-02  -5.7 6.08e-02  -0.6 5.04e-01 8.58e-01f  1
  38 -3.5515944e-02 1.60e-13 1.38e-02  -5.7 8.66e-01  -1.1 9.63e-02 2.33e-03f  4
  39 -4.6061530e-02 5.55e-14 1.67e-02  -5.7 9.24e-02  -0.6 1.00e+00 6.53e-01f  1
iter    objective    inf_pr   inf_du lg(mu)  ||d||  lg(rg) alpha_du alpha_pr  ls
  40 -4.6059793e-02 5.55e-14 1.67e-02  -5.7 7.23e-01  -1.1 2.03e-02 9.37e-06f 14
  41 -4.6046169e-02 5.47e-14 2.85e-02  -5.7 8.29e+01  -0.7 8.83e-04 1.34e-05f  8
  42 -5.3343644e-02 1.08e-14 2.18e-02  -5.7 4.31e-02  -0.3 1.00e+00 8.05e-01f  1
  43 -5.6793443e-02 1.01e-14 6.47e-02  -5.7 2.68e-01  -0.7 1.00e+00 4.91e-02f  1
  44 -5.7681419e-02 9.44e-15 3.52e-02  -5.7 5.72e-02  -0.3 1.00e+00 7.02e-02f  1
  45 -6.2493780e-02 2.11e-12 5.42e-02  -5.7 2.52e-01  -0.8 6.33e-01 7.65e-02f  1
  46 -6.7187508e-02 3.94e-12 3.36e-02  -5.7 6.32e-02  -0.4 5.26e-01 3.05e-01f  1
  47 -8.2415439e-02 3.37e-12 2.87e-02  -5.7 4.16e-01  -0.8 1.88e-01 1.45e-01f  1
  48 -9.3223603e-02 6.27e-12 3.14e-02  -5.7 1.07e-01  -0.4 6.31e-01 3.30e-01f  1
  49 -9.9606349e-02 2.26e-12 3.33e-02  -5.7 3.34e-02   0.0 6.50e-01 6.40e-01f  1
iter    objective    inf_pr   inf_du lg(mu)  ||d||  lg(rg) alpha_du alpha_pr  ls
  50 -1.0538299e-01 2.02e-12 3.55e-02  -5.7 1.57e-01  -0.5 2.68e-01 1.06e-01f  1
  51 -1.0987993e-01 1.19e-12 5.37e-02  -5.7 3.15e-02  -0.0 1.00e+00 4.10e-01f  1
  52 -1.1373379e-01 2.36e-12 5.49e-02  -5.7 1.46e-01  -0.5 1.99e-01 6.58e-02f  1
  53 -1.1676209e-01 1.87e-12 4.09e-02  -5.7 3.75e-02  -0.1 1.00e+00 2.05e-01f  1
  54 -1.1869416e-01 2.41e-12 4.65e-02  -5.7 1.76e-01  -0.6 2.19e-01 2.70e-02f  1
  55 -1.2761323e-01 5.77e-12 2.87e-02  -5.7 4.24e-02  -0.1 1.00e+00 5.13e-01f  1
  56 -1.3290427e-01 5.50e-12 2.98e-02  -5.7 2.81e-01  -0.6 1.76e-01 4.63e-02f  1
  57 -1.3612322e-01 5.92e-12 3.53e-02  -5.7 5.50e-02  -0.2 1.00e+00 1.30e-01f  1
  58 -1.4024006e-01 5.75e-12 7.36e-02  -5.7 4.33e-01  -0.7 4.07e-01 2.87e-02f  1
  59 -1.5065107e-01 8.63e-12 3.20e-02  -5.7 6.89e-02  -0.2 1.00e+00 4.04e-01f  1
iter    objective    inf_pr   inf_du lg(mu)  ||d||  lg(rg) alpha_du alpha_pr  ls
  60 -1.5513174e-01 8.51e-12 6.86e-02  -5.7 1.07e+00  -0.7 1.50e-01 1.46e-02f  1
  61 -1.6025054e-01 6.72e-12 4.70e-02  -5.7 7.09e-02  -0.3 7.56e-01 2.10e-01f  1
  62 -1.6063785e-01 6.91e-12 6.28e-02  -5.7 2.39e+00  -0.8 2.82e-02 6.41e-04f  1
  63 -1.6677201e-01 5.30e-12 9.33e-02  -5.7 8.37e-02  -0.3 1.00e+00 2.33e-01f  1
  64 -1.7820563e-01 5.19e-12 1.25e-01  -5.7 1.86e+00  -0.8 9.21e-02 2.15e-02f  1
  65 -1.8816327e-01 7.81e-12 5.77e-02  -5.7 1.05e-01  -0.4 8.79e-01 3.48e-01f  1
  66 -1.9980624e-01 7.75e-14 3.09e-02  -5.7 2.83e-02   0.0 1.00e+00 9.90e-01f  1
  67 -2.2100902e-01 8.32e-12 6.19e-02  -5.7 1.40e-01  -0.5 1.00e+00 3.22e-01f  1
  68 -2.2100857e-01 8.32e-12 5.91e-02  -5.7 7.32e-01  -0.9 9.58e-03 2.83e-06f 14
  69 -2.2515684e-01 8.06e-12 9.19e-02  -5.7 2.56e-01  -0.5 2.76e-01 3.17e-02f  1
iter    objective    inf_pr   inf_du lg(mu)  ||d||  lg(rg) alpha_du alpha_pr  ls
  70 -2.2514213e-01 8.04e-12 9.17e-02  -5.7 1.37e+00  -1.0 1.09e-03 1.80e-03f  3
  71 -2.2831051e-01 7.90e-12 1.40e-01  -5.7 3.65e-01  -0.6 3.50e-01 1.83e-02f  1
  72 -2.2966278e-01 7.53e-12 9.15e-02  -5.7 5.62e-02  -0.1 8.94e-01 4.62e-02f  1
  73 -2.4192157e-01 6.88e-12 1.59e-01  -5.7 2.94e-01  -0.6 1.00e+00 8.69e-02f  1
  74 -2.5153448e-01 1.04e-11 1.85e-01  -5.7 3.16e+01  -1.1 2.78e-03 7.92e-04f  1
  75 -2.5283293e-01 1.08e-11 1.20e-01  -5.7 1.71e-01  -0.7 9.92e-01 2.31e-02f  1
  76 -2.5708486e-01 9.78e-12 1.33e-01  -5.7 1.90e-01  -1.1 1.00e+00 9.07e-02f  1
  77 -2.5906012e-01 3.46e-12 3.96e-02  -5.7 2.31e-02  -0.7 1.00e+00 6.46e-01f  1
  78 -2.6151203e-01 5.84e-13 1.40e-02  -5.7 7.96e-02  -1.2 1.00e+00 8.31e-01f  1
  79 -2.6263548e-01 3.63e-14 5.45e-03  -5.7 3.11e-02  -0.8 1.00e+00 9.38e-01f  1
iter    objective    inf_pr   inf_du lg(mu)  ||d||  lg(rg) alpha_du alpha_pr  ls
  80 -2.6791654e-01 6.25e-12 7.50e-03  -5.7 1.19e-01  -1.2 1.00e+00 1.00e+00f  1
  81 -2.7053923e-01 1.44e-15 7.66e-03  -5.7 4.87e-02  -0.8 1.00e+00 1.00e+00f  1
  82 -2.8236591e-01 6.81e-12 1.14e-02  -5.7 2.02e-01  -1.3 1.00e+00 8.17e-01f  1
  83 -2.8232205e-01 6.73e-12 8.74e-02  -5.7 7.60e-02  -0.9 1.00e+00 1.56e-02f  7
  84 -2.9161586e-01 1.67e-15 8.12e-03  -5.7 1.09e-01  -1.3 1.00e+00 1.00e+00f  1
  85 -2.9561326e-01 4.33e-12 6.44e-03  -5.7 4.34e-02  -0.9 1.00e+00 7.04e-01f  1
  86 -2.9626194e-01 4.23e-12 2.54e-02  -5.7 3.28e-01  -1.4 1.66e-01 2.15e-02f  1
  87 -2.9754174e-01 2.92e-12 4.06e-02  -5.7 5.64e-02  -1.0 1.00e+00 3.09e-01f  1
  88 -3.1048243e-01 2.99e-11 4.72e-02  -5.7 2.11e-01  -1.4 2.71e-01 5.88e-01f  1
  89 -3.3298654e-01 1.67e-11 3.52e-02  -5.7 2.99e-01  -1.0 3.85e-01 4.41e-01f  1
iter    objective    inf_pr   inf_du lg(mu)  ||d||  lg(rg) alpha_du alpha_pr  ls
  90 -3.3384617e-01 1.60e-11 5.38e-02  -5.7 1.09e-01  -0.6 8.38e-01 2.98e-02f  1
  91 -3.3794755e-01 1.54e-11 8.76e-02  -5.7 5.41e-01  -1.1 1.60e-01 3.83e-02f  1
  92 -3.5774901e-01 1.42e-11 4.52e-02  -5.7 9.91e-02  -0.6 2.86e-01 1.00e+00f  1
  93 -3.6939162e-01 1.27e-11 4.66e-02  -5.7 3.90e-01  -1.1 2.91e-02 1.08e-01f  1
  94 -3.9473020e-01 3.63e-12 2.29e-02  -5.7 1.20e-01  -0.7 8.06e-01 7.13e-01f  1
  95 -4.1273821e-01 2.42e-11 2.50e-02  -5.7 4.70e-02  -0.3 7.65e-01 1.00e+00f  1
  96 -4.8813053e-01 5.77e-11 8.19e-02  -5.7 5.04e-01  -0.7 1.54e-01 2.88e-01f  1
  97 -5.1296300e-01 4.86e-11 1.40e-01  -5.7 1.92e-01  -0.3 7.29e-01 1.57e-01f  1
  98 -5.2248513e-01 4.81e-11 1.36e-01  -5.7 7.75e+00  -0.8 2.28e-04 1.02e-02f  1
  99 -5.2287936e-01 4.83e-11 2.15e-01  -5.7 2.01e-01  -0.4 9.60e-01 3.74e-03f  1
iter    objective    inf_pr   inf_du lg(mu)  ||d||  lg(rg) alpha_du alpha_pr  ls
 100 -5.3022962e-01 4.74e-11 3.78e-01  -5.7 1.24e+00  -0.8 3.88e-01 1.79e-02f  1
 101 -5.7892517e-01 1.12e-10 4.33e-01  -5.7 2.32e-01  -0.4 9.74e-02 6.58e-01f  1
 102 -7.4396450e-01 1.16e-10 4.21e-01  -5.7 4.15e+01  -0.9 1.01e-02 9.08e-03f  1
 103 -7.7676480e-01 1.10e-10 1.25e+00  -5.7 1.16e+00  -0.5 1.00e+00 5.16e-02f  1
 104 -9.9672588e-01 2.53e-10 9.55e-01  -5.7 1.19e+00  -0.9 2.54e-01 2.31e-01f  1
 105 -9.9671593e-01 2.53e-10 9.35e-01  -5.7 4.82e-02    -  2.36e-02 2.54e-04f  8
 106 -9.9677501e-01 2.50e-10 5.99e-01  -5.7 1.54e-03    -  4.16e-01 2.28e-02f  1
 107 -9.9818552e-01 9.33e-11 1.50e-01  -5.7 1.85e-03    -  1.00e+00 6.26e-01f  1
 108 -9.9954561e-01 4.50e-11 2.40e-02  -5.7 1.53e-03    -  1.00e+00 8.52e-01f  1
 109 -9.9977907e-01 6.47e-11 6.16e-08  -5.7 2.23e-04    -  1.00e+00 1.00e+00f  1
iter    objective    inf_pr   inf_du lg(mu)  ||d||  lg(rg) alpha_du alpha_pr  ls
 110 -1.0000002e+00 3.01e-14 1.30e-07  -8.6 2.98e-05    -  1.00e+00 1.00e+00f  1
 111 -1.0000001e+00 3.76e-11 3.12e-01  -8.6 1.46e-08    -  6.81e-01 1.00e+00f  1
 112 -1.0000001e+00 8.88e-16 1.03e-13  -8.6 8.16e-09    -  1.00e+00 1.00e+00h  1

Number of Iterations....: 112

                                   (scaled)                 (unscaled)
Objective...............:  -1.0000001071398930e+00   -1.0000001071398930e+00
Dual infeasibility......:   1.0294678382638290e-13    1.0294678382638290e-13
Constraint violation....:   8.8817841970012523e-16    8.8817841970012523e-16
Complementarity.........:   4.1249985304709391e-09    4.1249985304709391e-09
Overall NLP error.......:   4.1249985304709391e-09    4.1249985304709391e-09


Number of objective function evaluations             = 240
Number of objective gradient evaluations             = 113
Number of equality constraint evaluations            = 240
Number of inequality constraint evaluations          = 0
Number of equality constraint Jacobian evaluations   = 1
Number of inequality constraint Jacobian evaluations = 0
Number of Lagrangian Hessian evaluations             = 112
Total CPU secs in IPOPT (w/o function evaluations)   =      0.500
Total CPU secs in NLP function evaluations           =      7.790

EXIT: Optimal Solution Found.
